
Gurobi 11.0.0 (linux64) logging started Tue Sep 17 03:46:19 2024

Set parameter LogFile to value "gurobi.log"
Set parameter InfUnbdInfo to value 1
Gurobi Optimizer version 11.0.0 build v11.0.0rc2 (linux64 - "Ubuntu 22.04.4 LTS")

CPU model: AMD EPYC 7V13 64-Core Processor, instruction set [SSE2|AVX|AVX2]
Thread count: 128 physical cores, 128 logical processors, using up to 32 threads

Optimize a model with 61 rows, 238 columns and 151 nonzeros
Model fingerprint: 0xf9da3b96
Model has 194 quadratic constraints
Model has 1 general constraint
Variable types: 63 continuous, 175 integer (0 binary)
Coefficient statistics:
  Matrix range     [1e+00, 6e+04]
  QMatrix range    [1e+00, 6e+04]
  QLMatrix range   [1e+00, 6e+04]
  Objective range  [1e+00, 1e+00]
  Bounds range     [1e+00, 4e+09]
  RHS range        [1e+00, 2e+06]
  QRHS range       [1e+00, 2e+06]
Warning: Model contains large bounds
         Consider reformulating model or setting NumericFocus parameter
         to avoid numerical issues.
Using branch priorities (all 0).
Presolve added 58 rows and 0 columns
Presolve removed 0 rows and 53 columns
Presolve time: 0.00s
Presolved: 607 rows, 228 columns, 1611 nonzeros
Presolved model has 4 SOS constraint(s)
Presolved model has 95 bilinear constraint(s)
Warning: Model contains variables with very large bounds participating
         in product terms.
         Presolve was not able to compute smaller bounds for these variables.
         Consider bounding these variables or reformulating the model.


Solving non-convex MIQCP

Variable types: 66 continuous, 162 integer (43 binary)

Root relaxation: objective 7.115000e+02, 145 iterations, 0.00 seconds (0.00 work units)

    Nodes    |    Current Node    |     Objective Bounds      |     Work
 Expl Unexpl |  Obj  Depth IntInf | Incumbent    BestBd   Gap | It/Node Time

     0     0  711.50000    0   38          -  711.50000      -     -    0s
     0     0  961.50021    0   68          -  961.50021      -     -    0s
     0     0  961.50021    0   68          -  961.50021      -     -    0s
H    0     0                    317786.00000  961.50021   100%     -    0s
H    0     0                    286536.00000  961.50021   100%     -    0s
     0     0 1115.77309    0  112 286536.000 1115.77309   100%     -    0s
H    0     0                    285816.00000 1273.32329   100%     -    0s
     0     0 1273.32329    0   89 285816.000 1273.32329   100%     -    0s
     0     0 1273.32329    0   99 285816.000 1273.32329   100%     -    0s
     0     0 1512.96348    0   78 285816.000 1512.96348  99.5%     -    0s
     0     0 1591.96348    0   36 285816.000 1591.96348  99.4%     -    0s
     0     0 1602.30773    0  103 285816.000 1602.30773  99.4%     -    0s
H    0     0                    131274.00000 1605.05203  98.8%     -    0s
H    0     0                    129548.00000 1605.05203  98.8%     -    0s
     0     0 1605.05203    0  100 129548.000 1605.05203  98.8%     -    0s
     0     0 1626.41892    0  128 129548.000 1626.41892  98.7%     -    0s
     0     0 1626.41892    0  127 129548.000 1626.41892  98.7%     -    0s
H    0     0                    116270.00000 1631.29245  98.6%     -    0s
H    0     0                    85020.000000 1631.29245  98.1%     -    0s
     0     0 1631.29245    0  128 85020.0000 1631.29245  98.1%     -    0s
     0     0 2881.45292    0  118 85020.0000 2881.45292  96.6%     -    0s
     0     0 6527.31733    0  118 85020.0000 6527.31733  92.3%     -    0s
     0     0 6757.18085    0  105 85020.0000 6757.18085  92.1%     -    0s
     0     0 6838.51580    0  116 85020.0000 6838.51580  92.0%     -    0s
     0     0 14180.5133    0  117 85020.0000 14180.5133  83.3%     -    0s
     0     0 14463.5832    0  108 85020.0000 14463.5832  83.0%     -    0s
     0     0 27869.7118    0   92 85020.0000 27869.7118  67.2%     -    0s
H    0     0                    84770.000000 27869.7118  67.1%     -    0s
     0     0 27869.7118    0  111 84770.0000 27869.7118  67.1%     -    0s
H    0     0                    69149.000000 27869.7118  59.7%     -    0s
     0     0 32074.0196    0  111 69149.0000 32074.0196  53.6%     -    0s
     0     0 32330.0072    0  114 69149.0000 32330.0072  53.2%     -    0s
     0     0 42840.4764    0   98 69149.0000 42840.4764  38.0%     -    0s
     0     0 48377.7987    0  106 69149.0000 48377.7987  30.0%     -    0s
     0     0 49537.1568    0   97 69149.0000 49537.1568  28.4%     -    0s
     0     0 50439.3772    0   97 69149.0000 50439.3772  27.1%     -    0s
     0     0 53476.6491    0   96 69149.0000 53476.6491  22.7%     -    0s
     0     0 60692.1498    0   96 69149.0000 60692.1498  12.2%     -    0s
     0     0 61692.4305    0  105 69149.0000 61692.4305  10.8%     -    0s
H    0     0                    68024.000000 61692.4305  9.31%     -    0s
     0     0 61692.4305    0  100 68024.0000 61692.4305  9.31%     -    0s
     0     0 61692.4305    0   83 68024.0000 61692.4305  9.31%     -    0s
     0     0 61692.4305    0  105 68024.0000 61692.4305  9.31%     -    0s
     0     0 61692.4305    0   99 68024.0000 61692.4305  9.31%     -    0s
     0     0 61692.4305    0  102 68024.0000 61692.4305  9.31%     -    0s
     0     0 61692.4305    0   91 68024.0000 61692.4305  9.31%     -    0s
     0     0 61692.4305    0   91 68024.0000 61692.4305  9.31%     -    0s
H    0     0                    67280.000000 61692.4305  8.30%     -    0s
     0     0 61692.4305    0   82 67280.0000 61692.4305  8.30%     -    0s
     0     0 61692.4305    0   82 67280.0000 61692.4305  8.30%     -    0s
     0     0 61692.4305    0   93 67280.0000 61692.4305  8.30%     -    0s
     0     0 61692.4305    0   95 67280.0000 61692.4305  8.30%     -    0s
     0     0 61692.4305    0   91 67280.0000 61692.4305  8.30%     -    0s
     0     0 61692.4305    0   89 67280.0000 61692.4305  8.30%     -    0s
     0     0 61692.4305    0   89 67280.0000 61692.4305  8.30%     -    0s
     0     0 61692.4305    0   89 67280.0000 61692.4305  8.30%     -    0s
     0     0 61692.4305    0   89 67280.0000 61692.4305  8.30%     -    0s
     0     0 61692.4305    0   89 67280.0000 61692.4305  8.30%     -    0s
H    0     0                    66536.000000 61692.4305  7.28%     -    0s
     0     2 61692.4305    0   89 66536.0000 61692.4305  7.28%     -    0s

Cutting planes:
  Learned: 2
  Implied bound: 11
  MIR: 25
  StrongCG: 1
  Flow cover: 1
  RLT: 13
  Relax-and-lift: 1

Explored 749 nodes (4511 simplex iterations) in 1.93 seconds (0.20 work units)
Thread count was 32 (of 128 available processors)

Solution count 10: 66536 67280 68024 ... 285816

Optimal solution found (tolerance 1.00e-10)
Best objective 6.653600000000e+04, best bound 6.653600000000e+04, gap 0.0000%
